Instance Name : rc104
Date : 2022-07-21
Solution
Route 1 : 92 34 31 29 27 26 28 30 32 33 50
Route 2 : 95 62 63 85 84 56 91 80
Route 3 : 51 76 89 18 48 19 49 20 64
Route 4 : 66 24 22 21 23 25 77
Route 5 : 96 94 67 93 71 72 54 81
Route 6 : 69 98 53 52 86 74 57 83 65
Route 7 : 90 99 87 59 97 75 58
Route 8 : 82 10 11 15 16 9 13 17 47 14
Route 9 : 12 78 73 79 60 88 55 100 70 68
Route 10 : 2 6 7 8 46 5 45 4 3 1 61
Route 11 : 42 44 43 38 37 35 36 40 39 41
